testSat.result.smt2
continue-if-sat
sat
(
  (define-fun x () Int
    2)
  (define-fun y () Int
    3)
)
continue-if-sat
sat
(
  (define-fun x () Int
    3)
  (define-fun y () Int
    4)
)
continue-if-sat
sat
(
  (define-fun x () Int
    4)
  (define-fun y () Int
    5)
)
continue-if-sat
sat
(
  (define-fun x () Int
    5)
  (define-fun y () Int
    6)
)
continue-if-sat
sat
(
  (define-fun x () Int
    6)
  (define-fun y () Int
    7)
)
continue-if-sat
sat
(
  (define-fun x () Int
    7)
  (define-fun y () Int
    8)
)
continue-if-sat
sat
(
  (define-fun x () Int
    8)
  (define-fun y () Int
    9)
)
continue-if-sat
unsat
(error "line 52 column 11: model is not available")
